\* source_minimzer *\
Minimize
OBJ: __dummy
Subject To
_C1: 2 covered_('A',_0) <= 5
_C10: 3 covered_('B',_4) <= 5
_C2: 23 covered_('A',_1) <= 5
_C3: 30 covered_('A',_2) <= 5
_C4: 54 covered_('A',_3) <= 5
_C5: covered_('A',_4) <= 5
_C6: 3 covered_('B',_0) <= 5
_C7: covered_('B',_1) <= 5
_C8: 2 covered_('B',_2) <= 5
_C9: 2 covered_('B',_3) <= 5
Bounds
__dummy = 0
Binaries
covered_('A',_0)
covered_('A',_1)
covered_('A',_2)
covered_('A',_3)
covered_('A',_4)
covered_('B',_0)
covered_('B',_1)
covered_('B',_2)
covered_('B',_3)
covered_('B',_4)
End
